60
1 0 9
2 0 5
2 1 10
3 0 10
3 2 6
4 0 5
4 2 1
4 3 10
5 2 6
5 4 1
6 0 7
6 1 9
6 2 3
6 4 8
6 5 6
7 0 10
7 3 7
7 4 6
7 5 4
7 6 6
8 0 3
8 1 5
8 2 4
8 3 3
8 4 6
8 5 7
8 6 5
9 0 9
9 1 6
9 2 1
9 3 4
9 4 4
9 5 10
9 6 8
9 7 4
9 8 2
10 0 2
10 1 4
10 2 7
10 4 2
10 5 3
10 6 6
10 7 3
10 8 4
10 9 4
11 1 10
11 2 6
11 3 9
11 4 7
11 5 7
11 6 9
11 8 4
11 10 5
12 0 10
12 1 3
12 2 8
12 3 9
12 4 7
12 5 5
12 6 5
12 7 5
12 8 10
12 9 2
12 10 5
12 11 9
13 0 7
13 1 3
13 2 1
13 3 9
13 4 9
13 5 6
13 6 7
13 7 10
13 8 4
13 9 7
13 10 4
13 11 3
13 12 5
14 0 4
14 1 7
14 2 9
14 3 9
14 4 8
14 5 2
14 7 7
14 8 8
14 9 9
14 10 8
14 11 10
14 12 3
14 13 3
15 0 3
15 1 9
15 2 8
15 3 3
15 5 3
15 7 10
15 8 10
15 9 4
15 10 9
15 11 6
15 12 5
15 14 7
16 0 4
16 1 1
16 2 10
16 3 8
16 4 6
16 5 9
16 6 3
16 7 10
16 8 3
16 9 6
16 10 6
16 11 3
16 12 5
16 13 10
16 14 1
16 15 9
17 0 10
17 1 2
17 2 7
17 3 10
17 4 3
17 5 8
17 6 2
17 7 5
17 8 4
17 9 10
17 10 1
17 11 10
17 12 7
17 13 10
17 14 6
17 15 4
17 16 2
18 0 8
18 1 6
18 3 4
18 4 5
18 5 2
18 6 6
18 7 8
18 8 3
18 9 3
18 10 1
18 11 9
18 13 7
18 14 10
18 15 7
18 17 8
19 0 8
19 1 4
19 2 2
19 3 8
19 4 4
19 5 8
19 6 3
19 7 3
19 8 1
19 9 5
19 10 7
19 11 5
19 12 3
19 13 3
19 14 10
19 15 3
19 16 4
19 17 10
19 18 3
20 0 3
20 2 9
20 3 3
20 4 6
20 5 9
20 6 10
20 7 1
20 8 8
20 9 8
20 10 5
20 11 2
20 12 1
20 13 7
20 14 8
20 15 1
20 16 7
20 17 6
20 18 10
20 19 4
21 0 10
21 1 4
21 2 10
21 3 8
21 4 3
21 5 6
21 6 2
21 7 1
21 8 6
21 9 8
21 10 1
21 12 5
21 13 4
21 15 5
21 16 1
21 17 2
21 18 7
21 19 1
21 20 4
22 0 4
22 2 3
22 3 3
22 4 1
22 6 9
22 7 9
22 8 8
22 9 4
22 10 8
22 11 4
22 12 6
22 14 5
22 15 2
22 16 10
22 17 6
22 18 5
22 19 9
22 20 7
22 21 10
23 0 9
23 1 4
23 2 1
23 3 4
23 4 4
23 5 6
23 6 4
23 7 9
23 8 3
23 9 9
23 11 4
23 12 6
23 13 1
23 14 4
23 15 5
23 16 6
23 17 3
23 18 4
23 19 6
23 20 4
23 21 5
23 22 5
24 0 7
24 1 7
24 2 6
24 3 1
24 4 8
24 5 3
24 6 4
24 7 10
24 8 5
24 10 7
24 11 10
24 12 2
24 13 10
24 14 1
24 15 1
24 16 7
24 18 7
24 19 3
24 20 10
24 21 7
24 22 10
25 0 2
25 1 3
25 2 5
25 3 1
25 4 3
25 5 7
25 6 5
25 7 3
25 8 1
25 9 10
25 10 5
25 11 10
25 12 1
25 13 6
25 15 4
25 16 1
25 17 5
25 18 10
25 19 8
25 20 2
25 21 8
25 22 7
25 23 6
25 24 6
26 0 4
26 1 7
26 2 2
26 5 7
26 7 9
26 9 4
26 11 6
26 12 9
26 13 3
26 14 2
26 15 6
26 16 6
26 17 4
26 18 7
26 19 4
26 20 4
26 21 7
26 22 6
26 23 4
26 24 6
26 25 8
27 0 1
27 2 9
27 3 6
27 4 5
27 5 4
27 6 6
27 7 6
27 8 3
27 10 8
27 12 2
27 13 5
27 15 1
27 16 4
27 17 9
27 18 4
27 20 5
27 21 8
27 22 8
27 23 5
27 24 4
27 26 5
28 0 2
28 1 7
28 2 1
28 3 4
28 4 8
28 5 4
28 6 10
28 7 6
28 8 9
28 9 5
28 11 8
28 14 6
28 15 9
28 16 5
28 17 9
28 18 9
28 19 8
28 20 6
28 21 5
28 22 8
28 24 9
28 25 1
28 26 6
28 27 3
29 0 10
29 1 1
29 2 2
29 4 3
29 6 3
29 7 8
29 8 4
29 9 10
29 10 1
29 11 9
29 12 1
29 13 7
29 14 4
29 15 3
29 16 5
29 17 7
29 18 9
29 19 5
29 20 8
29 21 10
29 23 2
29 24 2
29 26 8
29 27 8
29 28 2
30 0 6
30 1 4
30 2 1
30 3 8
30 4 5
30 5 5
30 6 2
30 7 7
30 8 7
30 10 1
30 11 1
30 12 4
30 13 8
30 14 8
30 15 9
30 16 3
30 17 3
30 18 4
30 19 2
30 20 7
30 22 5
30 23 8
30 24 6
30 27 1
30 28 1
30 29 4
31 0 5
31 1 7
31 2 8
31 3 9
31 4 10
31 5 7
31 6 10
31 7 3
31 8 3
31 9 8
31 11 2
31 12 3
31 13 8
31 14 10
31 15 6
31 16 1
31 17 10
31 18 10
31 19 4
31 20 6
31 21 8
31 22 3
31 23 1
31 24 3
31 26 6
31 27 8
31 28 6
31 29 8
31 30 1
32 0 8
32 1 1
32 2 5
32 3 1
32 4 1
32 5 3
32 6 8
32 7 2
32 8 9
32 9 7
32 10 2
32 11 10
32 12 4
32 13 10
32 14 1
32 15 8
32 16 6
32 17 4
32 18 6
32 19 4
32 20 8
32 21 9
32 22 10
32 23 6
32 24 8
32 25 10
32 26 3
32 27 9
32 28 6
32 29 3
32 30 2
32 31 8
33 0 7
33 1 9
33 2 10
33 3 7
33 4 5
33 5 8
33 6 10
33 7 1
33 8 5
33 9 9
33 10 8
33 11 2
33 12 5
33 13 3
33 14 10
33 15 5
33 16 9
33 17 8
33 18 7
33 19 2
33 20 6
33 21 2
33 22 7
33 23 3
33 24 10
33 25 3
33 26 6
33 27 2
33 28 10
33 29 3
33 31 9
33 32 10
34 0 4
34 1 9
34 2 5
34 3 9
34 4 4
34 5 3
34 6 5
34 7 4
34 8 6
34 9 1
34 10 5
34 11 1
34 12 2
34 13 9
34 15 8
34 16 5
34 17 1
34 18 1
34 20 5
34 21 7
34 22 7
34 23 7
34 24 4
34 25 8
34 26 1
34 28 5
34 29 10
34 30 5
34 31 7
34 32 4
34 33 1
35 0 6
35 1 5
35 2 4
35 3 5
35 4 3
35 5 1
35 6 10
35 7 1
35 8 2
35 9 1
35 10 8
35 11 2
35 12 6
35 13 3
35 14 10
35 15 1
35 16 6
35 18 10
35 19 10
35 20 2
35 21 1
35 22 10
35 23 5
35 24 1
35 25 7
35 26 1
35 27 9
35 28 8
35 29 10
35 30 9
35 31 1
35 32 4
35 33 4
35 34 6
36 0 2
36 1 2
36 2 7
36 3 4
36 4 9
36 5 7
36 6 10
36 7 7
36 8 2
36 9 10
36 10 2
36 11 10
36 12 5
36 13 6
36 14 3
36 15 10
36 17 10
36 18 1
36 20 4
36 23 10
36 24 7
36 25 3
36 26 8
36 27 4
36 28 6
36 29 9
36 30 3
36 31 10
36 32 5
36 33 9
36 34 5
36 35 7
37 0 4
37 2 7
37 3 4
37 4 9
37 5 6
37 6 7
37 7 7
37 8 7
37 9 9
37 10 6
37 11 10
37 12 1
37 13 5
37 14 10
37 15 10
37 16 8
37 17 3
37 18 7
37 19 7
37 20 6
37 21 2
37 22 10
37 23 2
37 24 6
37 25 1
37 26 9
37 27 9
37 29 4
37 30 5
37 31 4
37 32 9
37 33 5
37 34 6
37 35 10
37 36 6
38 0 3
38 1 10
38 2 6
38 3 7
38 4 10
38 5 7
38 6 1
38 7 8
38 8 9
38 9 2
38 10 8
38 11 3
38 12 6
38 13 1
38 14 6
38 15 6
38 16 5
38 17 1
38 18 3
38 19 4
38 20 7
38 22 8
38 23 1
38 25 10
38 26 1
38 27 3
38 28 9
38 29 6
38 30 5
38 31 5
38 33 5
38 34 7
38 35 4
38 36 8
38 37 2
39 0 5
39 1 8
39 3 8
39 4 3
39 5 6
39 6 5
39 8 4
39 9 10
39 10 3
39 11 7
39 12 2
39 13 3
39 14 5
39 15 7
39 16 1
39 17 9
39 19 9
39 21 5
39 22 7
39 23 8
39 24 7
39 25 2
39 26 7
39 27 1
39 28 7
39 29 4
39 30 3
39 31 7
39 32 10
39 33 10
39 34 2
39 36 2
39 37 4
39 38 3
40 0 4
40 2 6
40 3 6
40 4 10
40 5 6
40 6 7
40 8 1
40 9 7
40 10 10
40 11 4
40 12 10
40 13 10
40 14 1
40 15 4
40 16 5
40 17 8
40 18 1
40 19 4
40 20 9
40 22 4
40 23 4
40 24 5
40 25 10
40 26 3
40 27 4
40 29 4
40 30 6
40 31 1
40 32 10
40 34 5
40 35 1
40 36 4
40 37 10
40 38 9
40 39 4
41 0 4
41 1 2
41 2 1
41 3 3
41 4 7
41 5 9
41 6 7
41 7 2
41 8 1
41 9 3
41 10 2
41 11 1
41 12 5
41 13 8
41 14 3
41 15 7
41 16 7
41 17 9
41 18 8
41 19 3
41 20 1
41 21 3
41 22 1
41 23 5
41 24 6
41 25 1
41 26 9
41 27 1
41 28 8
41 30 6
41 31 2
41 32 4
41 33 4
41 34 4
41 35 8
41 36 7
41 38 10
41 39 1
41 40 2
42 0 8
42 1 2
42 2 1
42 3 8
42 4 3
42 5 9
42 6 7
42 10 9
42 11 3
42 12 6
42 14 7
42 15 3
42 16 2
42 17 3
42 18 4
42 19 4
42 20 5
42 23 7
42 24 4
42 25 8
42 26 3
42 27 2
42 28 3
42 29 9
42 30 10
42 31 3
42 32 6
42 33 9
42 34 1
42 35 6
42 36 7
42 37 2
42 38 5
42 39 9
42 40 6
42 41 7
43 0 6
43 1 4
43 3 9
43 5 4
43 6 5
43 7 8
43 8 5
43 9 6
43 10 5
43 11 10
43 12 2
43 13 3
43 14 4
43 15 10
43 16 9
43 18 5
43 19 5
43 20 3
43 21 6
43 22 2
43 23 8
43 25 1
43 26 1
43 27 2
43 28 1
43 29 3
43 30 10
43 31 1
43 33 4
43 34 10
43 35 1
43 36 10
43 39 5
43 40 5
43 41 2
44 0 7
44 1 7
44 2 1
44 4 7
44 5 3
44 6 8
44 7 3
44 8 5
44 9 4
44 10 3
44 13 9
44 14 9
44 15 2
44 16 1
44 17 7
44 18 9
44 19 10
44 20 3
44 22 8
44 23 5
44 24 2
44 25 5
44 26 5
44 27 5
44 28 10
44 29 7
44 30 9
44 31 10
44 32 2
44 33 6
44 34 5
44 35 10
44 36 5
44 37 4
44 38 5
44 39 9
44 41 5
44 42 1
44 43 4
45 0 1
45 2 10
45 3 2
45 4 9
45 5 6
45 6 1
45 8 3
45 9 6
45 11 2
45 12 3
45 13 6
45 14 1
45 15 1
45 16 10
45 17 10
45 18 10
45 19 10
45 20 8
45 21 9
45 22 5
45 23 8
45 24 8
45 25 7
45 26 6
45 27 2
45 28 8
45 30 5
45 32 5
45 33 10
45 34 2
45 35 5
45 36 1
45 37 9
45 39 2
45 40 4
45 41 3
45 42 5
45 44 10
46 0 2
46 1 2
46 2 4
46 3 5
46 4 4
46 5 7
46 6 7
46 7 3
46 8 6
46 9 5
46 10 1
46 11 8
46 12 7
46 14 1
46 15 9
46 16 8
46 17 2
46 18 3
46 19 8
46 20 1
46 21 10
46 22 9
46 23 3
46 24 1
46 25 4
46 26 7
46 27 1
46 28 1
46 30 9
46 31 7
46 32 7
46 33 9
46 34 2
46 35 9
46 36 3
46 37 7
46 38 8
46 39 5
46 40 9
46 42 3
46 44 3
47 0 1
47 1 3
47 2 8
47 4 5
47 5 8
47 6 10
47 9 5
47 10 3
47 12 5
47 13 5
47 14 7
47 15 3
47 16 3
47 18 9
47 19 5
47 20 4
47 21 7
47 22 10
47 23 2
47 24 3
47 25 8
47 26 3
47 27 5
47 29 3
47 30 2
47 31 9
47 32 6
47 33 3
47 34 5
47 35 3
47 36 8
47 37 1
47 38 6
47 39 9
47 40 3
47 41 8
47 44 8
47 45 8
47 46 1
48 0 2
48 1 6
48 2 8
48 3 4
48 5 1
48 6 3
48 7 1
48 8 7
48 9 9
48 10 7
48 11 4
48 12 9
48 13 7
48 14 10
48 15 9
48 16 1
48 17 4
48 18 8
48 19 10
48 20 3
48 21 4
48 23 1
48 24 10
48 25 5
48 27 7
48 28 5
48 29 3
48 31 10
48 32 5
48 33 3
48 34 4
48 35 5
48 36 7
48 37 4
48 38 3
48 39 2
48 40 4
48 41 4
48 42 3
48 43 8
48 44 5
48 45 8
48 46 1
49 0 9
49 1 9
49 2 10
49 3 10
49 4 1
49 5 1
49 6 3
49 7 7
49 8 1
49 9 10
49 10 9
49 11 1
49 13 8
49 14 6
49 15 4
49 16 9
49 17 8
49 18 5
49 19 9
49 20 5
49 21 6
49 22 6
49 24 8
49 25 6
49 26 9
49 27 2
49 28 8
49 29 6
49 31 5
49 32 9
49 33 3
49 34 4
49 35 5
49 36 2
49 37 5
49 38 8
49 39 2
49 40 6
49 41 5
49 42 1
49 43 1
49 44 8
49 45 9
49 46 9
49 47 1
49 48 2
50 0 3
50 1 1
50 2 7
50 3 2
50 4 5
50 5 3
50 6 7
50 7 4
50 8 3
50 9 1
50 10 8
50 11 1
50 12 6
50 13 7
50 14 7
50 15 3
50 16 8
50 17 4
50 18 5
50 19 4
50 20 4
50 21 10
50 22 6
50 23 1
50 24 6
50 25 4
50 26 5
50 27 8
50 28 9
50 29 8
50 31 8
50 32 7
50 33 6
50 35 3
50 36 1
50 37 4
50 38 2
50 40 4
50 41 1
50 42 5
50 43 8
50 44 10
50 45 7
50 46 6
50 47 9
50 48 7
50 49 5
51 0 7
51 1 1
51 2 8
51 3 1
51 4 2
51 5 1
51 6 4
51 7 6
51 8 10
51 9 5
51 10 9
51 11 8
51 12 7
51 13 5
51 14 10
51 15 6
51 16 4
51 18 1
51 19 8
51 20 7
51 21 5
51 22 5
51 23 3
51 24 7
51 25 8
51 26 9
51 27 1
51 28 7
51 29 5
51 30 4
51 31 7
51 32 9
51 33 7
51 34 2
51 35 8
51 36 4
51 37 4
51 38 7
51 39 8
51 40 9
51 41 8
51 42 6
51 43 7
51 44 7
51 45 6
51 46 6
51 47 3
51 48 8
51 49 6
51 50 1
52 0 3
52 1 8
52 2 1
52 4 7
52 7 5
52 8 6
52 9 2
52 10 4
52 11 3
52 12 6
52 13 4
52 14 8
52 15 9
52 16 8
52 17 1
52 19 8
52 20 8
52 22 4
52 23 1
52 24 5
52 25 1
52 26 8
52 27 2
52 28 3
52 29 9
52 30 2
52 31 7
52 32 9
52 33 4
52 34 2
52 35 3
52 36 6
52 37 4
52 39 2
52 41 10
52 42 10
52 43 4
52 44 6
52 45 6
52 46 6
52 47 7
52 48 8
52 49 2
52 50 4
52 51 9
53 0 4
53 1 1
53 2 3
53 3 8
53 4 10
53 5 5
53 6 10
53 7 5
53 8 8
53 9 4
53 10 3
53 11 5
53 12 6
53 13 5
53 14 6
53 15 1
53 16 9
53 17 10
53 18 6
53 19 4
53 20 1
53 21 1
53 22 3
53 23 7
53 24 9
53 26 3
53 27 4
53 28 6
53 29 2
53 30 1
53 32 7
53 33 3
53 34 10
53 35 3
53 36 6
53 37 5
53 38 2
53 40 1
53 41 1
53 42 5
53 43 2
53 44 2
53 45 10
53 46 2
53 47 6
53 49 8
53 50 2
53 51 8
53 52 1
54 0 9
54 1 2
54 2 1
54 3 6
54 4 9
54 5 1
54 6 2
54 7 6
54 9 6
54 10 1
54 11 10
54 12 9
54 13 6
54 14 4
54 15 9
54 16 9
54 18 10
54 19 2
54 20 7
54 21 4
54 22 5
54 24 10
54 26 7
54 27 4
54 28 9
54 29 1
54 30 6
54 31 1
54 32 5
54 33 7
54 34 5
54 35 2
54 36 6
54 37 2
54 38 10
54 39 6
54 40 7
54 41 6
54 42 10
54 43 10
54 44 8
54 46 4
54 47 6
54 48 8
54 49 5
54 50 4
54 51 8
54 52 8
54 53 4
55 1 3
55 2 2
55 3 2
55 4 10
55 5 7
55 6 5
55 7 10
55 8 10
55 9 2
55 10 6
55 11 9
55 12 4
55 13 7
55 14 6
55 15 6
55 16 2
55 17 5
55 19 3
55 20 3
55 21 7
55 22 2
55 23 4
55 24 7
55 25 9
55 26 7
55 27 10
55 28 3
55 31 5
55 32 5
55 33 1
55 34 4
55 35 10
55 36 8
55 37 7
55 38 8
55 39 8
55 40 10
55 41 8
55 42 3
55 43 8
55 45 5
55 46 10
55 47 3
55 48 1
55 49 6
55 50 5
55 51 3
55 52 1
55 53 7
56 0 6
56 1 8
56 2 9
56 4 5
56 5 1
56 6 4
56 7 7
56 8 3
56 9 8
56 10 7
56 11 8
56 12 4
56 13 6
56 14 4
56 15 1
56 16 10
56 17 8
56 18 9
56 19 5
56 20 4
56 21 8
56 22 10
56 23 3
56 24 4
56 25 7
56 26 5
56 27 9
56 28 10
56 29 1
56 30 7
56 31 9
56 32 6
56 33 1
56 34 1
56 35 5
56 37 5
56 38 10
56 40 7
56 41 8
56 42 4
56 43 5
56 44 1
56 45 3
56 46 9
56 47 7
56 48 2
56 49 7
56 50 7
56 51 10
56 52 3
56 53 5
56 55 8
57 1 5
57 2 1
57 3 2
57 4 8
57 5 5
57 6 6
57 7 3
57 8 6
57 9 8
57 11 6
57 12 9
57 13 5
57 14 2
57 15 6
57 16 9
57 17 3
57 18 4
57 19 4
57 20 8
57 21 5
57 22 4
57 23 3
57 24 2
57 25 7
57 26 3
57 28 10
57 29 10
57 30 9
57 31 4
57 32 2
57 33 2
57 34 7
57 35 6
57 36 7
57 38 5
57 39 4
57 40 2
57 41 2
57 42 8
57 43 8
57 44 7
57 45 4
57 46 4
57 47 6
57 48 7
57 49 8
57 50 10
57 51 6
57 53 6
57 54 6
57 55 3
58 0 7
58 2 7
58 3 8
58 4 3
58 5 1
58 6 5
58 7 10
58 9 4
58 10 1
58 11 7
58 12 5
58 13 8
58 14 10
58 16 5
58 17 4
58 18 4
58 19 4
58 20 8
58 21 4
58 22 1
58 24 3
58 25 8
58 26 6
58 27 8
58 28 8
58 29 10
58 30 1
58 31 2
58 32 8
58 33 2
58 34 7
58 35 5
58 36 1
58 37 2
58 38 8
58 39 2
58 41 1
58 42 1
58 43 7
58 46 7
58 47 8
58 48 10
58 49 10
58 50 9
58 51 6
58 53 8
58 54 8
58 55 10
58 56 2
58 57 8
59 2 8
59 3 5
59 4 2
59 5 6
59 6 9
59 7 8
59 8 10
59 9 2
59 10 1
59 11 5
59 12 8
59 13 9
59 14 5
59 16 8
59 17 4
59 18 2
59 19 6
59 20 5
59 21 10
59 22 9
59 23 5
59 24 5
59 25 5
59 26 9
59 27 5
59 28 5
59 29 1
59 30 9
59 32 8
59 33 8
59 34 4
59 35 2
59 36 8
59 37 9
59 38 7
59 39 8
59 40 4
59 41 9
59 42 4
59 43 2
59 44 9
59 45 5
59 46 9
59 47 3
59 48 9
59 49 2
59 50 7
59 51 4
59 52 7
59 53 6
59 54 10
59 55 10
59 56 4
59 57 1
59 58 8
